
  12    4
  10   10   10   10

   0   0   0   0   0   3 2 3 4 
   6  10  10  10  10   5 11 10 9 8 5 
   8  10  10  10  10   2 8 6 
   6  10  10  10  10   1 5 
   6  10  10  10  10   1 7 
   7  10  10  10  10   1 7 
   2  10  10  10  10   1 12
   7  10  10  10  10   1 12
   9  10  10  10  10   1 12
   7  10  10  10  10   1 12
   7  10  10  10  10   1 12
   0   0   0   0   0   0 
